(set-logic QF_BV)
(declare-fun _substvar_1321_ () (_ BitVec 1))
(declare-fun _substvar_1317_ () (_ BitVec 8))
(declare-fun _substvar_1315_ () (_ BitVec 8))
(declare-fun _substvar_1036_ () (_ BitVec 1))
(declare-fun _substvar_1255_ () (_ BitVec 5))
(declare-fun _substvar_1367_ () (_ BitVec 4))
(declare-fun _substvar_1330_ () (_ BitVec 1))
(declare-fun _substvar_1349_ () (_ BitVec 1))
(declare-fun _substvar_1235_ () (_ BitVec 6))
(declare-fun _substvar_1240_ () (_ BitVec 4))
(declare-fun _substvar_1281_ () (_ BitVec 1))
(declare-fun _substvar_1292_ () (_ BitVec 4))
(declare-fun _substvar_1214_ () (_ BitVec 2))
(declare-fun _substvar_1344_ () (_ BitVec 4))
(declare-fun _substvar_1322_ () (_ BitVec 8))
(declare-fun _substvar_1340_ () (_ BitVec 4))
(declare-fun _substvar_1262_ () (_ BitVec 4))
(declare-fun _substvar_1339_ () (_ BitVec 4))
(declare-fun _substvar_1205_ () (_ BitVec 1))
(declare-fun _substvar_1221_ () (_ BitVec 4))
(declare-fun _substvar_1335_ () (_ BitVec 6))
(declare-fun _substvar_1227_ () (_ BitVec 1))
(declare-fun _substvar_1233_ () (_ BitVec 6))
(declare-fun _substvar_1208_ () (_ BitVec 1))
(declare-fun _substvar_1286_ () (_ BitVec 6))
(declare-fun _substvar_1311_ () (_ BitVec 4))
(declare-fun _substvar_1343_ () (_ BitVec 1))
(declare-fun _substvar_1298_ () (_ BitVec 1))
(declare-fun _substvar_1353_ () (_ BitVec 4))
(declare-fun _substvar_1337_ () (_ BitVec 4))
(declare-fun _substvar_1296_ () (_ BitVec 4))
(declare-fun _substvar_1306_ () (_ BitVec 4))
(declare-fun _substvar_1210_ () (_ BitVec 1))
(declare-fun _substvar_1283_ () (_ BitVec 4))
(declare-fun _substvar_1290_ () (_ BitVec 4))
(declare-fun _substvar_1362_ () (_ BitVec 6))
(declare-fun _substvar_1251_ () (_ BitVec 4))
(declare-fun _substvar_1218_ () (_ BitVec 2))
(declare-fun _substvar_1346_ () (_ BitVec 4))
(declare-fun _substvar_1307_ () (_ BitVec 4))
(declare-fun _substvar_1272_ () (_ BitVec 4))
(declare-fun _substvar_1287_ () (_ BitVec 5))
(declare-fun _substvar_1223_ () (_ BitVec 1))
(declare-fun _substvar_1229_ () (_ BitVec 1))
(declare-fun _substvar_1347_ () (_ BitVec 1))
(declare-fun _substvar_1035_ () (_ BitVec 4))
(declare-fun _substvar_1263_ () (_ BitVec 5))
(declare-fun _substvar_1041_ () (_ BitVec 4))
(declare-fun _substvar_1357_ () (_ BitVec 5))
(declare-fun _substvar_1363_ () (_ BitVec 1))
(declare-fun _substvar_1300_ () (_ BitVec 4))
(declare-fun _substvar_1359_ () (_ BitVec 6))
(declare-fun _substvar_1305_ () (_ BitVec 4))
(declare-fun _substvar_1320_ () (_ BitVec 6))
(declare-fun _substvar_1331_ () (_ BitVec 4))
(declare-fun _substvar_1265_ () (_ BitVec 6))
(declare-fun _substvar_1352_ () (_ BitVec 4))
(declare-fun _substvar_1316_ () (_ BitVec 6))
(declare-fun _substvar_1289_ () (_ BitVec 4))
(declare-fun _substvar_1370_ () (_ BitVec 1))
(declare-fun _substvar_1368_ () (_ BitVec 6))
(declare-fun _substvar_1350_ () (_ BitVec 5))
(declare-fun _substvar_1278_ () (_ BitVec 4))
(declare-fun _substvar_1314_ () (_ BitVec 5))
(declare-fun _substvar_1294_ () (_ BitVec 4))
(declare-fun _substvar_1310_ () (_ BitVec 8))
(declare-fun _substvar_1365_ () (_ BitVec 1))
(declare-fun _substvar_1295_ () (_ BitVec 4))
(declare-fun _substvar_1326_ () (_ BitVec 8))
(declare-fun _substvar_1355_ () (_ BitVec 4))
(declare-fun _substvar_1332_ () (_ BitVec 4))
(declare-fun _substvar_1267_ () (_ BitVec 4))
(declare-fun _substvar_1303_ () (_ BitVec 5))
(declare-fun _substvar_1324_ () (_ BitVec 4))
(declare-fun _substvar_1277_ () (_ BitVec 6))
(declare-fun _substvar_1224_ () (_ BitVec 1))
(declare-fun _substvar_1042_ () (_ BitVec 1))
(declare-fun _substvar_1327_ () (_ BitVec 6))
(declare-fun _substvar_1275_ () (_ BitVec 4))
(declare-fun _substvar_1271_ () (_ BitVec 1))
(declare-fun _substvar_1266_ () (_ BitVec 6))
(declare-fun _substvar_1274_ () (_ BitVec 4))
(declare-fun _substvar_1270_ () (_ BitVec 6))
(assert (= _substvar_1036_ (ite (bvult _substvar_1035_ _substvar_1306_) (_ bv1 1) (_ bv0 1))))
(assert (= _substvar_1365_ (bvand _substvar_1349_ _substvar_1036_)))
(assert (= _substvar_1042_ ((_ extract 0 0) _substvar_1041_)))
(assert (= _substvar_1205_ ((_ extract 1 1) _substvar_1041_)))
(assert (= _substvar_1208_ ((_ extract 2 2) _substvar_1041_)))
(assert (= _substvar_1210_ ((_ extract 3 3) _substvar_1041_)))
(assert (= _substvar_1214_ (concat _substvar_1208_ _substvar_1210_)))
(assert (= _substvar_1218_ (concat _substvar_1042_ _substvar_1205_)))
(assert (= _substvar_1221_ (concat _substvar_1218_ _substvar_1214_)))
(assert (= _substvar_1223_ ((_ extract 0 0) _substvar_1221_)))
(assert (= _substvar_1224_ ((_ extract 1 1) _substvar_1221_)))
(assert (= _substvar_1227_ ((_ extract 2 2) _substvar_1221_)))
(assert (= _substvar_1229_ ((_ extract 3 3) _substvar_1221_)))
(assert (= _substvar_1233_ ((_ zero_extend 2) _substvar_1035_)))
(assert (= _substvar_1235_ ((_ zero_extend 2) _substvar_1306_)))
(assert (= _substvar_1240_ ((_ extract 3 0) _substvar_1233_)))
(assert (= _substvar_1251_ _substvar_1240_))
(assert (= _substvar_1255_ ((_ zero_extend 1) _substvar_1306_)))
(assert (= _substvar_1262_ (ite (= _substvar_1223_ (_ bv1 1)) _substvar_1251_ (_ bv0 4))))
(assert (= _substvar_1263_ (concat _substvar_1262_ (_ bv0 1))))
(assert (= _substvar_1265_ ((_ zero_extend 1) _substvar_1263_)))
(assert (= _substvar_1266_ (bvadd _substvar_1233_ _substvar_1265_)))
(assert (= _substvar_1271_ (ite (bvult _substvar_1266_ _substvar_1235_) (_ bv1 1) (_ bv0 1))))
(assert (= _substvar_1274_ ((_ extract 3 0) _substvar_1266_)))
(assert (= _substvar_1277_ (bvsub _substvar_1266_ _substvar_1235_)))
(assert (= (_ bv0 1) (ite (bvult _substvar_1277_ _substvar_1235_) (_ bv1 1) (_ bv0 1))))
(assert (= _substvar_1286_ (bvsub _substvar_1277_ _substvar_1235_)))
(assert (= _substvar_1289_ ((_ extract 3 0) _substvar_1286_)))
(assert (= _substvar_1292_ _substvar_1289_))
(assert (= _substvar_1295_ (ite (= _substvar_1271_ (_ bv1 1)) _substvar_1274_ _substvar_1292_)))
(assert (= _substvar_1298_ (ite (bvult _substvar_1263_ _substvar_1255_) (_ bv1 1) (_ bv0 1))))
(assert (= _substvar_1300_ ((_ extract 3 0) _substvar_1263_)))
(assert (= _substvar_1303_ (bvsub _substvar_1263_ _substvar_1255_)))
(assert (= _substvar_1305_ ((_ extract 3 0) _substvar_1303_)))
(assert (= _substvar_1307_ (ite (= _substvar_1298_ (_ bv1 1)) _substvar_1300_ _substvar_1305_)))
(assert (= _substvar_1311_ (ite (= _substvar_1224_ (_ bv1 1)) _substvar_1295_ _substvar_1307_)))
(assert (= _substvar_1314_ (concat _substvar_1311_ (_ bv0 1))))
(assert (= _substvar_1316_ ((_ zero_extend 1) _substvar_1314_)))
(assert (= _substvar_1320_ (bvadd _substvar_1233_ _substvar_1316_)))
(assert (= _substvar_1321_ (ite (bvult _substvar_1320_ _substvar_1235_) (_ bv1 1) (_ bv0 1))))
(assert (= _substvar_1324_ ((_ extract 3 0) _substvar_1320_)))
(assert (= _substvar_1327_ (bvsub _substvar_1320_ _substvar_1235_)))
(assert (= _substvar_1330_ (ite (bvult _substvar_1327_ _substvar_1235_) (_ bv1 1) (_ bv0 1))))
(assert (= _substvar_1332_ ((_ extract 3 0) _substvar_1327_)))
(assert (= _substvar_1335_ (bvsub _substvar_1327_ _substvar_1235_)))
(assert (= _substvar_1337_ ((_ extract 3 0) _substvar_1335_)))
(assert (= _substvar_1339_ (ite (= _substvar_1330_ (_ bv1 1)) _substvar_1332_ _substvar_1337_)))
(assert (= _substvar_1340_ (ite (= _substvar_1321_ (_ bv1 1)) _substvar_1324_ _substvar_1339_)))
(assert (= _substvar_1343_ (ite (bvult _substvar_1314_ _substvar_1255_) (_ bv1 1) (_ bv0 1))))
(assert (= _substvar_1346_ ((_ extract 3 0) _substvar_1314_)))
(assert (= _substvar_1350_ (bvsub _substvar_1314_ _substvar_1255_)))
(assert (= _substvar_1352_ ((_ extract 3 0) _substvar_1350_)))
(assert (= _substvar_1353_ (ite (= _substvar_1343_ (_ bv1 1)) _substvar_1346_ _substvar_1352_)))
(assert (= _substvar_1355_ (ite (= _substvar_1227_ (_ bv1 1)) _substvar_1340_ _substvar_1353_)))
(assert (= _substvar_1357_ (concat _substvar_1355_ (_ bv0 1))))
(assert (= _substvar_1359_ ((_ zero_extend 1) _substvar_1357_)))
(assert (= _substvar_1362_ (bvadd _substvar_1233_ _substvar_1359_)))
(assert (= _substvar_1363_ (ite (bvult _substvar_1362_ _substvar_1235_) (_ bv1 1) (_ bv0 1))))
(assert (= _substvar_1367_ ((_ extract 3 0) _substvar_1362_)))
(assert (= _substvar_1368_ (bvsub _substvar_1362_ _substvar_1235_)))
(assert (= _substvar_1370_ (ite (bvult _substvar_1368_ _substvar_1235_) (_ bv1 1) (_ bv0 1))))
(assert (= _substvar_1267_ ((_ extract 3 0) _substvar_1368_)))
(assert (= _substvar_1270_ (bvsub _substvar_1368_ _substvar_1235_)))
(assert (= _substvar_1272_ ((_ extract 3 0) _substvar_1270_)))
(assert (= _substvar_1275_ (ite (= _substvar_1370_ (_ bv1 1)) _substvar_1267_ _substvar_1272_)))
(assert (= _substvar_1278_ (ite (= _substvar_1363_ (_ bv1 1)) _substvar_1367_ _substvar_1275_)))
(assert (= _substvar_1281_ (ite (bvult _substvar_1357_ _substvar_1255_) (_ bv1 1) (_ bv0 1))))
(assert (= _substvar_1283_ ((_ extract 3 0) _substvar_1357_)))
(assert (= _substvar_1287_ (bvsub _substvar_1357_ _substvar_1255_)))
(assert (= _substvar_1290_ ((_ extract 3 0) _substvar_1287_)))
(assert (= _substvar_1294_ (ite (= _substvar_1281_ (_ bv1 1)) _substvar_1283_ _substvar_1290_)))
(assert (= _substvar_1296_ (ite (= _substvar_1229_ (_ bv1 1)) _substvar_1278_ _substvar_1294_)))
(assert (= _substvar_1310_ ((_ zero_extend 4) _substvar_1035_)))
(assert (= _substvar_1315_ ((_ zero_extend 4) _substvar_1041_)))
(assert (= _substvar_1317_ (bvmul _substvar_1310_ _substvar_1315_)))
(assert (= _substvar_1322_ ((_ zero_extend 4) _substvar_1306_)))
(assert (= _substvar_1326_ (bvurem _substvar_1317_ _substvar_1322_)))
(assert (= _substvar_1331_ ((_ extract 3 0) _substvar_1326_)))
(assert (= _substvar_1344_ _substvar_1331_))
(assert (= _substvar_1347_ (ite (= _substvar_1296_ _substvar_1344_) (_ bv1 1) (_ bv0 1))))
(assert (= (_ bv0 1) (ite (= _substvar_1365_ (_ bv1 1)) _substvar_1347_ (_ bv1 1))))
(check-sat)
(exit)
